% seed = 1460016

mint = 75;
% maxt = 236;

nActs = 42;
dur = [0,9,10,10,9,1,8,4,10,3,1,5,2,1,7,6,10,10,6,4,7,2,2,9,9,5,5,3,9,7,10,3,7,3,1,9,7,1,4,8,9,0];

nSkills = 4;
sreq = [| 0,0,0,0,
	| 5,3,0,7,
	| 3,4,7,0,
	| 4,3,5,0,
	| 7,0,6,5,
	| 2,2,0,6,
	| 5,2,0,4,
	| 0,4,4,2,
	| 4,3,0,2,
	| 6,0,4,7,
	| 2,0,4,3,
	| 3,6,0,4,
	| 3,6,2,0,
	| 6,2,0,5,
	| 0,5,5,5,
	| 4,0,3,5,
	| 6,0,7,2,
	| 3,3,0,4,
	| 0,5,1,2,
	| 6,1,5,0,
	| 1,0,5,4,
	| 4,5,0,2,
	| 6,3,0,5,
	| 5,0,5,4,
	| 0,2,3,6,
	| 3,5,5,0,
	| 4,0,4,5,
	| 3,3,0,1,
	| 0,6,5,3,
	| 5,3,0,4,
	| 3,3,3,0,
	| 0,1,3,5,
	| 4,0,4,2,
	| 4,5,2,0,
	| 6,6,7,0,
	| 0,4,3,4,
	| 1,5,0,5,
	| 0,3,4,3,
	| 3,3,4,0,
	| 5,5,6,0,
	| 0,4,6,1,
	| 0,0,0,0, |];

nResources = 30;
mastery = [| false,true,true,true,
	| false,false,false,true,
	| false,false,true,true,
	| false,true,true,true,
	| true,false,false,false,
	| true,false,true,true,
	| true,false,true,true,
	| false,true,true,true,
	| false,false,true,false,
	| true,true,false,true,
	| false,true,true,true,
	| true,false,true,false,
	| false,true,false,true,
	| true,true,true,false,
	| true,false,true,true,
	| true,true,true,false,
	| false,true,false,true,
	| true,true,false,false,
	| false,true,false,false,
	| true,true,false,true,
	| true,false,true,true,
	| true,false,false,true,
	| true,true,false,false,
	| false,false,false,true,
	| true,false,true,true,
	| true,true,false,true,
	| true,true,false,true,
	| true,true,true,false,
	| false,false,false,true,
	| false,true,true,true, |];

nPrecs = 85;
pred = [1,1,1,2,2,3,3,3,4,4,4,5,5,5,6,6,6,7,7,7,8,8,8,9,9,9,10,10,10,11,11,11,12,12,12,13,13,13,14,14,14,15,15,16,16,16,17,17,18,18,19,19,19,20,20,20,21,21,22,22,23,24,24,25,26,26,27,28,29,29,30,31,31,32,33,34,34,35,36,37,37,38,39,40,41];
succ = [2,3,4,20,5,10,12,8,5,19,21,11,6,7,17,26,14,9,13,16,27,38,23,18,24,26,17,25,20,26,27,30,27,28,37,14,15,24,34,30,22,29,23,18,29,24,35,28,33,32,33,38,22,36,22,32,35,28,23,31,39,30,32,29,33,31,31,41,36,37,41,35,39,37,34,36,40,40,41,38,39,40,42,42,42];

nUnrels = 425;
unpred = [2,2,2,2,2,2,2,2,3,3,3,3,3,3,3,3,3,3,3,3,3,3,3,3,3,3,4,4,4,4,4,5,5,5,5,5,5,5,6,6,6,6,6,6,6,6,6,6,6,6,6,6,6,6,6,6,6,6,7,7,7,7,7,7,7,7,7,7,7,8,8,8,8,8,8,8,8,8,8,8,8,8,8,8,8,8,8,8,8,8,8,8,8,8,8,9,9,9,9,9,9,9,9,9,9,9,9,9,9,9,9,9,10,10,10,10,10,10,10,10,10,10,10,10,10,10,10,11,11,11,11,11,11,11,11,11,11,11,11,11,11,11,11,11,11,11,12,12,12,12,12,12,12,12,12,12,12,12,12,12,12,12,12,12,12,12,13,13,13,13,13,13,13,13,13,13,13,14,14,14,14,14,14,14,14,14,14,14,14,14,14,14,14,14,15,15,15,15,15,15,15,15,15,15,15,15,15,15,15,15,15,15,16,16,16,16,16,16,16,16,16,16,16,16,17,17,17,17,17,17,17,17,17,17,17,17,17,17,17,17,17,17,17,17,18,18,18,18,18,18,18,18,18,18,18,18,18,18,19,19,19,19,19,19,19,19,19,19,19,20,20,20,20,20,20,20,20,20,20,21,21,21,21,21,21,21,21,21,21,21,21,21,21,21,21,22,22,22,22,22,22,22,22,22,22,22,22,22,22,23,23,23,23,23,23,23,23,23,23,23,23,23,23,23,23,23,24,24,24,24,24,24,24,24,24,24,25,25,25,25,25,25,25,25,25,26,26,26,26,26,26,26,27,27,27,27,27,27,27,27,27,27,28,28,28,28,28,28,28,28,28,28,28,28,29,29,29,29,29,29,30,30,30,30,30,30,30,30,30,30,31,31,31,31,31,31,31,32,32,32,32,32,33,33,33,33,34,34,34,34,35,35,35,35,35,36,36,36,36,37,38,38,39,39,40];
unsucc = [3,4,8,10,12,19,21,25,4,5,6,7,9,11,13,14,15,16,18,19,21,24,26,30,33,34,8,10,12,20,25,8,10,12,19,20,21,25,7,8,9,10,11,12,13,15,16,18,19,20,21,24,25,27,29,32,37,38,8,10,11,12,17,19,20,21,25,27,28,9,10,11,12,13,14,15,16,17,18,19,20,21,22,24,25,26,28,29,30,32,33,34,36,37,41,10,11,12,13,14,15,16,17,19,20,21,22,23,25,27,28,29,11,12,13,14,15,16,18,19,21,24,26,27,30,33,34,12,13,14,15,16,17,18,19,20,21,22,23,24,25,28,29,32,37,38,13,14,15,16,17,18,19,20,21,22,23,24,25,26,29,30,32,33,34,36,16,17,18,19,20,21,25,26,27,28,33,15,16,17,18,19,20,21,24,25,26,27,28,29,32,33,37,38,16,17,18,19,20,21,22,24,25,26,27,28,30,31,32,33,34,35,17,19,20,21,22,23,25,26,27,28,31,35,18,19,20,21,22,23,24,25,26,27,29,30,31,32,33,34,36,37,38,39,19,20,21,22,23,24,25,26,27,28,29,30,31,35,20,21,24,25,26,27,28,29,30,32,37,21,24,25,26,27,28,29,30,33,34,22,23,24,25,26,27,29,30,31,32,33,34,36,37,38,39,24,25,26,27,28,29,30,32,33,34,36,37,38,41,24,25,26,27,28,29,30,31,32,33,34,35,36,37,38,40,41,25,26,27,28,29,31,33,34,35,36,26,27,28,30,31,32,33,34,35,27,28,29,30,32,37,38,28,29,30,32,33,34,36,37,38,41,29,30,31,32,33,34,35,36,37,38,39,40,30,31,32,33,34,35,31,32,33,34,35,36,37,38,39,40,32,33,34,36,37,38,41,33,34,35,36,41,35,37,38,39,35,37,38,39,36,37,38,39,41,37,38,39,40,41,39,41,40,41,41];

USEFUL_RES = [{},
	{1,2,3,4,5,6,7,8,10,11,12,13,14,15,16,17,18,19,20,21,22,23,24,25,26,27,28,29,30},
	{1,3,4,5,6,7,8,9,10,11,12,13,14,15,16,17,18,19,20,21,22,23,25,26,27,28,30},
	{1,3,4,5,6,7,8,9,10,11,12,13,14,15,16,17,18,19,20,21,22,23,25,26,27,28,30},
	{1,2,3,4,5,6,7,8,9,10,11,12,13,14,15,16,17,18,20,21,22,23,24,25,26,27,28,29,30},
	{1,2,3,4,5,6,7,8,10,11,12,13,14,15,16,17,18,19,20,21,22,23,24,25,26,27,28,29,30},
	{1,2,3,4,5,6,7,8,10,11,12,13,14,15,16,17,18,19,20,21,22,23,24,25,26,27,28,29,30},
	{1,2,3,4,6,7,8,9,10,11,12,13,14,15,16,17,18,19,20,21,22,23,24,25,26,27,28,29,30},
	{1,2,3,4,5,6,7,8,10,11,12,13,14,15,16,17,18,19,20,21,22,23,24,25,26,27,28,29,30},
	{1,2,3,4,5,6,7,8,9,10,11,12,13,14,15,16,17,18,20,21,22,23,24,25,26,27,28,29,30},
	{1,2,3,4,5,6,7,8,9,10,11,12,13,14,15,16,17,18,20,21,22,23,24,25,26,27,28,29,30},
	{1,2,3,4,5,6,7,8,10,11,12,13,14,15,16,17,18,19,20,21,22,23,24,25,26,27,28,29,30},
	{1,3,4,5,6,7,8,9,10,11,12,13,14,15,16,17,18,19,20,21,22,23,25,26,27,28,30},
	{1,2,3,4,5,6,7,8,10,11,12,13,14,15,16,17,18,19,20,21,22,23,24,25,26,27,28,29,30},
	{1,2,3,4,6,7,8,9,10,11,12,13,14,15,16,17,18,19,20,21,22,23,24,25,26,27,28,29,30},
	{1,2,3,4,5,6,7,8,9,10,11,12,13,14,15,16,17,18,20,21,22,23,24,25,26,27,28,29,30},
	{1,2,3,4,5,6,7,8,9,10,11,12,13,14,15,16,17,18,20,21,22,23,24,25,26,27,28,29,30},
	{1,2,3,4,5,6,7,8,10,11,12,13,14,15,16,17,18,19,20,21,22,23,24,25,26,27,28,29,30},
	{1,2,3,4,6,7,8,9,10,11,12,13,14,15,16,17,18,19,20,21,22,23,24,25,26,27,28,29,30},
	{1,3,4,5,6,7,8,9,10,11,12,13,14,15,16,17,18,19,20,21,22,23,25,26,27,28,30},
	{1,2,3,4,5,6,7,8,9,10,11,12,13,14,15,16,17,18,20,21,22,23,24,25,26,27,28,29,30},
	{1,2,3,4,5,6,7,8,10,11,12,13,14,15,16,17,18,19,20,21,22,23,24,25,26,27,28,29,30},
	{1,2,3,4,5,6,7,8,10,11,12,13,14,15,16,17,18,19,20,21,22,23,24,25,26,27,28,29,30},
	{1,2,3,4,5,6,7,8,9,10,11,12,13,14,15,16,17,18,20,21,22,23,24,25,26,27,28,29,30},
	{1,2,3,4,6,7,8,9,10,11,12,13,14,15,16,17,18,19,20,21,22,23,24,25,26,27,28,29,30},
	{1,3,4,5,6,7,8,9,10,11,12,13,14,15,16,17,18,19,20,21,22,23,25,26,27,28,30},
	{1,2,3,4,5,6,7,8,9,10,11,12,13,14,15,16,17,18,20,21,22,23,24,25,26,27,28,29,30},
	{1,2,3,4,5,6,7,8,10,11,12,13,14,15,16,17,18,19,20,21,22,23,24,25,26,27,28,29,30},
	{1,2,3,4,6,7,8,9,10,11,12,13,14,15,16,17,18,19,20,21,22,23,24,25,26,27,28,29,30},
	{1,2,3,4,5,6,7,8,10,11,12,13,14,15,16,17,18,19,20,21,22,23,24,25,26,27,28,29,30},
	{1,3,4,5,6,7,8,9,10,11,12,13,14,15,16,17,18,19,20,21,22,23,25,26,27,28,30},
	{1,2,3,4,6,7,8,9,10,11,12,13,14,15,16,17,18,19,20,21,22,23,24,25,26,27,28,29,30},
	{1,2,3,4,5,6,7,8,9,10,11,12,13,14,15,16,17,18,20,21,22,23,24,25,26,27,28,29,30},
	{1,3,4,5,6,7,8,9,10,11,12,13,14,15,16,17,18,19,20,21,22,23,25,26,27,28,30},
	{1,3,4,5,6,7,8,9,10,11,12,13,14,15,16,17,18,19,20,21,22,23,25,26,27,28,30},
	{1,2,3,4,6,7,8,9,10,11,12,13,14,15,16,17,18,19,20,21,22,23,24,25,26,27,28,29,30},
	{1,2,3,4,5,6,7,8,10,11,12,13,14,15,16,17,18,19,20,21,22,23,24,25,26,27,28,29,30},
	{1,2,3,4,6,7,8,9,10,11,12,13,14,15,16,17,18,19,20,21,22,23,24,25,26,27,28,29,30},
	{1,3,4,5,6,7,8,9,10,11,12,13,14,15,16,17,18,19,20,21,22,23,25,26,27,28,30},
	{1,3,4,5,6,7,8,9,10,11,12,13,14,15,16,17,18,19,20,21,22,23,25,26,27,28,30},
	{1,2,3,4,6,7,8,9,10,11,12,13,14,15,16,17,18,19,20,21,22,23,24,25,26,27,28,29,30},
	{}];

POTENTIAL_ACT = [{2,3,4,5,6,7,8,9,10,11,12,13,14,15,16,17,18,19,20,21,22,23,24,25,26,27,28,29,30,31,32,33,34,35,36,37,38,39,40,41},
	{2,5,6,7,8,9,10,11,12,14,15,16,17,18,19,21,22,23,24,25,27,28,29,30,32,33,36,37,38,41},
	{2,3,4,5,6,7,8,9,10,11,12,13,14,15,16,17,18,19,20,21,22,23,24,25,26,27,28,29,30,31,32,33,34,35,36,37,38,39,40,41},
	{2,3,4,5,6,7,8,9,10,11,12,13,14,15,16,17,18,19,20,21,22,23,24,25,26,27,28,29,30,31,32,33,34,35,36,37,38,39,40,41},
	{2,3,4,5,6,7,9,10,11,12,13,14,16,17,18,20,21,22,23,24,26,27,28,30,31,33,34,35,37,39,40},
	{2,3,4,5,6,7,8,9,10,11,12,13,14,15,16,17,18,19,20,21,22,23,24,25,26,27,28,29,30,31,32,33,34,35,36,37,38,39,40,41},
	{2,3,4,5,6,7,8,9,10,11,12,13,14,15,16,17,18,19,20,21,22,23,24,25,26,27,28,29,30,31,32,33,34,35,36,37,38,39,40,41},
	{2,3,4,5,6,7,8,9,10,11,12,13,14,15,16,17,18,19,20,21,22,23,24,25,26,27,28,29,30,31,32,33,34,35,36,37,38,39,40,41},
	{3,4,5,8,10,11,13,15,16,17,19,20,21,24,25,26,27,29,31,32,33,34,35,36,38,39,40,41},
	{2,3,4,5,6,7,8,9,10,11,12,13,14,15,16,17,18,19,20,21,22,23,24,25,26,27,28,29,30,31,32,33,34,35,36,37,38,39,40,41},
	{2,3,4,5,6,7,8,9,10,11,12,13,14,15,16,17,18,19,20,21,22,23,24,25,26,27,28,29,30,31,32,33,34,35,36,37,38,39,40,41},
	{2,3,4,5,6,7,8,9,10,11,12,13,14,15,16,17,18,19,20,21,22,23,24,25,26,27,28,29,30,31,32,33,34,35,36,37,38,39,40,41},
	{2,3,4,5,6,7,8,9,10,11,12,13,14,15,16,17,18,19,20,21,22,23,24,25,26,27,28,29,30,31,32,33,34,35,36,37,38,39,40,41},
	{2,3,4,5,6,7,8,9,10,11,12,13,14,15,16,17,18,19,20,21,22,23,24,25,26,27,28,29,30,31,32,33,34,35,36,37,38,39,40,41},
	{2,3,4,5,6,7,8,9,10,11,12,13,14,15,16,17,18,19,20,21,22,23,24,25,26,27,28,29,30,31,32,33,34,35,36,37,38,39,40,41},
	{2,3,4,5,6,7,8,9,10,11,12,13,14,15,16,17,18,19,20,21,22,23,24,25,26,27,28,29,30,31,32,33,34,35,36,37,38,39,40,41},
	{2,3,4,5,6,7,8,9,10,11,12,13,14,15,16,17,18,19,20,21,22,23,24,25,26,27,28,29,30,31,32,33,34,35,36,37,38,39,40,41},
	{2,3,4,5,6,7,8,9,10,11,12,13,14,15,16,17,18,19,20,21,22,23,24,25,26,27,28,29,30,31,32,33,34,35,36,37,38,39,40,41},
	{2,3,4,6,7,8,9,12,13,14,15,18,19,20,22,23,25,26,28,29,30,31,32,34,35,36,37,38,39,40,41},
	{2,3,4,5,6,7,8,9,10,11,12,13,14,15,16,17,18,19,20,21,22,23,24,25,26,27,28,29,30,31,32,33,34,35,36,37,38,39,40,41},
	{2,3,4,5,6,7,8,9,10,11,12,13,14,15,16,17,18,19,20,21,22,23,24,25,26,27,28,29,30,31,32,33,34,35,36,37,38,39,40,41},
	{2,3,4,5,6,7,8,9,10,11,12,13,14,15,16,17,18,19,20,21,22,23,24,25,26,27,28,29,30,31,32,33,34,35,36,37,38,39,40,41},
	{2,3,4,5,6,7,8,9,10,11,12,13,14,15,16,17,18,19,20,21,22,23,24,25,26,27,28,29,30,31,32,33,34,35,36,37,38,39,40,41},
	{2,5,6,7,8,9,10,11,12,14,15,16,17,18,19,21,22,23,24,25,27,28,29,30,32,33,36,37,38,41},
	{2,3,4,5,6,7,8,9,10,11,12,13,14,15,16,17,18,19,20,21,22,23,24,25,26,27,28,29,30,31,32,33,34,35,36,37,38,39,40,41},
	{2,3,4,5,6,7,8,9,10,11,12,13,14,15,16,17,18,19,20,21,22,23,24,25,26,27,28,29,30,31,32,33,34,35,36,37,38,39,40,41},
	{2,3,4,5,6,7,8,9,10,11,12,13,14,15,16,17,18,19,20,21,22,23,24,25,26,27,28,29,30,31,32,33,34,35,36,37,38,39,40,41},
	{2,3,4,5,6,7,8,9,10,11,12,13,14,15,16,17,18,19,20,21,22,23,24,25,26,27,28,29,30,31,32,33,34,35,36,37,38,39,40,41},
	{2,5,6,7,8,9,10,11,12,14,15,16,17,18,19,21,22,23,24,25,27,28,29,30,32,33,36,37,38,41},
	{2,3,4,5,6,7,8,9,10,11,12,13,14,15,16,17,18,19,20,21,22,23,24,25,26,27,28,29,30,31,32,33,34,35,36,37,38,39,40,41}];
